\ This file has been generated by DOcplex
\ ENCODING=ISO-8859-1
\Problem name: prisoners problem

Maximize
 obj: [ - 15.076923076923 a0_u0*a1_u0_x0 - 33.076923076923 a0_u0*a1_u1_x0
      - 13.076923076923 a0_u1*a1_u0_x0 - 23.076923076923 a0_u1*a1_u1_x0 ]/2
Subject To
 c1: - 6.923076923077 aj_u0_x0 - 15.923076923077 aj_u1_x0
     - 16.923076923077 aj_u2_x0 - 12.923076923077 aj_u3_x0
     + 6.923076923077 a0_u0 + 16.923076923077 a0_u1 >= 0
 c2: - 6.923076923077 aj_u0_x0 - 15.923076923077 aj_u1_x0
     - 16.923076923077 aj_u2_x0 - 12.923076923077 aj_u3_x0
     + 15.923076923077 a0_u0 + 12.923076923077 a0_u1 >= 0
 c3: a0_u0 + a0_u1 = 1
 c4: a1_u0_x0 + a1_u1_x0 = 1
 c5: aj_u0_x0 + aj_u1_x0 + aj_u2_x0 + aj_u3_x0 = 1
 c6: aj_u0_x0 + aj_u1_x0 - a0_u0 = 0
 c7: aj_u2_x0 + aj_u3_x0 - a0_u1 = 0
 c8: aj_u0_x0 + aj_u2_x0 - a1_u0_x0 = 0
 c9: aj_u1_x0 + aj_u3_x0 - a1_u1_x0 = 0

Bounds
       a0_u0 <= 1
       a0_u1 <= 1
 0 <= a1_u0_x0 <= 1
 0 <= a1_u1_x0 <= 1
       aj_u0_x0 <= 1
       aj_u1_x0 <= 1
       aj_u2_x0 <= 1
       aj_u3_x0 <= 1

Binaries
 a1_u0_x0 a1_u1_x0
End
